Route #1:
Route #2: 4 2 5
Route #3: 22 9 15
Route #4: 17
Route #5: 29
Route #6: 19 11 6
Route #7: 26
Route #8: 10
Route #9: 14 25 30 27
Route #10: 21 31 7 16 1 12
Route #11: 20
Route #12: 8 3 18 24 13 28 23

Cost: 2108.341108106972
